p tw 54 115
1 53
1 19
1 16
1 2
1 7
1 11
2 11
2 14
2 7
3 46
3 54
3 16
3 37
4 31
4 25
4 41
4 9
5 6
5 15
5 10
5 23
6 49
6 29
6 10
7 54
7 39
8 18
8 36
8 22
8 21
9 31
9 32
9 26
10 24
11 14
11 53
12 42
12 34
12 45
12 28
13 32
13 25
13 22
13 28
14 24
14 30
15 17
15 23
15 47
16 46
16 19
17 31
17 44
17 47
18 43
18 22
18 54
19 52
19 33
20 38
20 36
20 27
20 21
21 38
21 36
22 32
23 50
23 24
24 40
24 50
24 30
25 41
25 28
26 48
26 32
26 27
27 36
27 48
28 34
29 49
29 35
29 30
30 35
31 44
31 32
31 33
32 33
33 52
34 35
35 42
36 48
36 37
37 48
37 54
38 51
38 39
39 54
39 51
40 41
40 42
41 42
42 45
43 45
43 54
43 44
44 45
46 47
46 48
47 48
49 50
49 51
50 51
52 53
52 54
53 54
